Problem:    
Rows:       260
Columns:    89 (72 integer, 72 binary)
Non-zeros:  974
Status:     INTEGER OPTIMAL
Objective:  value = 24.539941 (MINimum)

   No.   Row name        Activity     Lower bound   Upper bound
------ ------------    ------------- ------------- -------------
     1 r.5                   24.5399             0               
     2 r.6                   11.6503      -991.752               
     3 r.7                   1024.54             0               
     4 r.8                  -991.522      -992.538               
     5 r.9                   1024.54             0               
     6 r.10                 -988.772      -991.766               
     7 r.11                  24.5399             0               
     8 r.12                  11.2276      -992.491               
     9 r.13                  1024.54             0               
    10 r.14                 -997.429      -999.722               
    11 r.15                  24.5399             0               
    12 r.16                  11.6373      -998.513               
    13 r.17                  1024.54             0               
    14 r.18                 -997.707      -999.572               
    15 r.19                  24.5399             0               
    16 r.20                  11.2276      -997.729               
    17 r.21                  24.5399             0               
    18 r.22                  12.8781      -996.116               
    19 r.23                  1024.54             0               
    20 r.24                 -987.122       -996.01               
    21 r.25                  1024.54             0               
    22 r.26                 -999.829      -999.829               
    23 r.27                  24.5399             0               
    24 r.28                 -999.455      -999.455               
    25 r.29                  1024.54             0               
    26 r.30                  -975.46      -986.688               
    27 r.31                  24.5399             0               
    28 r.32                  24.5399      -987.949               
    29 r.33                  24.5399             0               
    30 r.34                  24.5399      -986.898               
    31 r.35                  1024.54             0               
    32 r.36                  -975.46      -988.338               
    33 r.37                        1             1             = 
    34 r.38                        1             1             = 
    35 r.39                        1             1             = 
    36 r.40                        1             1             = 
    37 r.41                        1             1             = 
    38 r.42                        1             1             = 
    39 r.43                        1             1             = 
    40 r.44                        1             1             = 
    41 r.45                     1001             2               
    42 r.46                    -1001         -1001               
    43 r.47                     2000      -991.766               
    44 r.48                     1001             2               
    45 r.49                    -1001         -1001               
    46 r.50                  2002.34      -992.491               
    47 r.51                     1001             2               
    48 r.52                    -1001         -1001               
    49 r.53                  1991.34      -999.722               
    50 r.54                     1001             2               
    51 r.55                    -1001         -1001               
    52 r.56                  2002.75      -998.513               
    53 r.57                     1001             2               
    54 r.58                    -1001         -1001               
    55 r.59                  1991.07      -999.572               
    56 r.60                     1001             2               
    57 r.61                    -1001         -1001               
    58 r.62                  2002.34      -997.729               
    59 r.63                     1000             2               
    60 r.64                    -1000         -1001               
    61 r.65                  2001.65      -996.116               
    62 r.66                        2             2               
    63 r.67                       -2         -1001               
    64 r.68                  -996.01       -996.01               
    65 r.69                  10.6343      -991.752               
    66 r.70                 -992.538      -992.538               
    67 r.71                  1011.92      -991.752               
    68 r.72                  8.75235      -992.538               
    69 r.73                 -986.688      -986.688               
    70 r.74                  13.3123      -987.949               
    71 r.75                 -984.348      -986.688               
    72 r.76                  15.6523      -987.949               
    73 r.77                  13.3123      -986.898               
    74 r.78                 -986.688      -988.338               
    75 r.79                  15.6523      -986.898               
    76 r.80                 -984.348      -988.338               
    77 r.81                     1001             2               
    78 r.82                    -1001         -1001               
    79 r.83                  2000.42        8.2478               
    80 r.84                     1001             2               
    81 r.85                    -1001         -1001               
    82 r.86                  1997.25       7.46205               
    83 r.87                        2             2               
    84 r.88                       -2         -1001               
    85 r.89                 -8.65683      -999.722               
    86 r.90                     1000             2               
    87 r.91                    -1000         -1001               
    88 r.92                  2000.41      -998.513               
    89 r.93                        2             2               
    90 r.94                       -2         -1001               
    91 r.95                 -8.93465      -999.572               
    92 r.96                     1000             2               
    93 r.97                    -1000         -1001               
    94 r.98                     2000      -997.729               
    95 r.99                     1001             2               
    96 r.100                   -1001         -1001               
    97 r.101                 2001.65      -996.116               
    98 r.102                    1001             2               
    99 r.103                   -1001         -1001               
   100 r.104                 2001.65       -996.01               
   101 r.105                -989.788      -991.766               
   102 r.106                 10.2117      -992.491               
   103 r.107                  11.502      -991.766               
   104 r.108                  1011.5      -992.491               
   105 r.109                -986.688      -986.688               
   106 r.110                 13.3123      -987.949               
   107 r.111                -986.688      -986.688               
   108 r.112                 13.3123      -987.949               
   109 r.113                    1001             2               
   110 r.114                   -1001         -1001               
   111 r.115                 2013.31      -986.898               
   112 r.116                    1001             2               
   113 r.117                   -1001         -1001               
   114 r.118                 2013.31      -988.338               
   115 r.119                    1001             2               
   116 r.120                   -1001         -1001               
   117 r.121                 2008.66        8.2478               
   118 r.122                    1001             2               
   119 r.123                   -1001         -1001               
   120 r.124                 1997.25       7.46205               
   121 r.125                       2             2               
   122 r.126                      -2         -1001               
   123 r.127                 8.23421       8.23421               
   124 r.128                    1000             2               
   125 r.129                   -1000         -1001               
   126 r.130                    2000       7.50936               
   127 r.131                       2             2               
   128 r.132                      -2         -1001               
   129 r.133               -0.700442      -999.572               
   130 r.134                    1000             2               
   131 r.135                   -1000         -1001               
   132 r.136                    2000      -997.729               
   133 r.137                    1001             2               
   134 r.138                   -1001         -1001               
   135 r.139                 2009.88      -996.116               
   136 r.140                    1001             2               
   137 r.141                   -1001         -1001               
   138 r.142                 2001.65       -996.01               
   139 r.143                -998.445      -999.722               
   140 r.144                 10.6213      -998.513               
   141 r.145                 2.84517      -999.722               
   142 r.146                 1011.91      -998.513               
   143 r.147                -978.453      -986.688               
   144 r.148                 21.5465      -987.949               
   145 r.149                -986.688      -986.688               
   146 r.150                 13.3123      -987.949               
   147 r.151                 21.5465      -986.898               
   148 r.152                -978.453      -988.338               
   149 r.153                 13.3123      -986.898               
   150 r.154                -986.688      -988.338               
   151 r.155                    1001             2               
   152 r.156                   -1001         -1001               
   153 r.157                 2009.36        8.2478               
   154 r.158                    1001             2               
   155 r.159                   -1001         -1001               
   156 r.160                 1997.25       7.46205               
   157 r.161                       2             2               
   158 r.162                      -2         -1001               
   159 r.163                 8.93465       8.23421               
   160 r.164                    1000             2               
   161 r.165                   -1000         -1001               
   162 r.166                    2000       7.50936               
   163 r.167                       2             2               
   164 r.168                      -2         -1001               
   165 r.169                0.277822      0.277822               
   166 r.170                    1000             2               
   167 r.171                   -1000         -1001               
   168 r.172                 2000.41       1.48656               
   169 r.173                    1001             2               
   170 r.174                   -1001         -1001               
   171 r.175                 2010.59      -996.116               
   172 r.176                    1001             2               
   173 r.177                   -1001         -1001               
   174 r.178                 2001.65       -996.01               
   175 r.179                -998.723      -999.572               
   176 r.180                 10.2117      -997.729               
   177 r.181                 2.56735      -999.572               
   178 r.182                  1011.5      -997.729               
   179 r.183                -977.753      -986.688               
   180 r.184                  22.247      -987.949               
   181 r.185                -986.688      -986.688               
   182 r.186                 13.3123      -987.949               
   183 r.187                    1001             2               
   184 r.188                   -1001         -1001               
   185 r.189                 2022.25      -986.898               
   186 r.190                    1001             2               
   187 r.191                   -1001         -1001               
   188 r.192                 2013.31      -988.338               
   189 r.193                    1000             2               
   190 r.194                   -1000         -1001               
   191 r.195                 1998.77        8.2478               
   192 r.196                       2             2               
   193 r.197                      -2         -1001               
   194 r.198                   995.6       7.46205               
   195 r.199                    1001             2               
   196 r.200                   -1001         -1001               
   197 r.201                 1998.35       8.23421               
   198 r.202                    1001             2               
   199 r.203                   -1001         -1001               
   200 r.204                 1998.35       7.50936               
   201 r.205                    1001             2               
   202 r.206                   -1001         -1001               
   203 r.207                 1989.69      0.277822               
   204 r.208                    1001             2               
   205 r.209                   -1001         -1001               
   206 r.210                 1998.76       1.48656               
   207 r.211                    1001             2               
   208 r.212                   -1001         -1001               
   209 r.213                 1989.41      0.428267               
   210 r.214                    1001             2               
   211 r.215                   -1001         -1001               
   212 r.216                 1998.35       2.27101               
   213 r.217                 11.8621      -996.116               
   214 r.218                -988.138       -996.01               
   215 r.219                 1013.15      -996.116               
   216 r.220                 13.1524       -996.01               
   217 r.221                    1001             2               
   218 r.222                   -1001         -1001               
   219 r.223                 2011.66      -986.688               
   220 r.224                    1001             2               
   221 r.225                   -1001         -1001               
   222 r.226                 2011.66      -987.949               
   223 r.227                 11.6619      -986.898               
   224 r.228                -988.338      -988.338               
   225 r.229                 11.6619      -986.898               
   226 r.230                -988.338      -988.338               
   227 r.231                -976.476      -986.688               
   228 r.232                  23.524      -987.949               
   229 r.233                 24.8143      -986.688               
   230 r.234                 1024.81      -987.949               
   231 r.235                    1001             2               
   232 r.236                   -1001         -1001               
   233 r.237                 1988.34         3.884               
   234 r.238                    1001             2               
   235 r.239                   -1001         -1001               
   236 r.240                 1988.34       3.99047               
   237 r.241                    1001             2               
   238 r.242                   -1001         -1001               
   239 r.243                    2000      -986.898               
   240 r.244                    1001             2               
   241 r.245                   -1001         -1001               
   242 r.246                    2000      -988.338               
   243 r.247                    1001             2               
   244 r.248                   -1001         -1001               
   245 r.249                 1986.69       8.23421               
   246 r.250                    1001             2               
   247 r.251                   -1001         -1001               
   248 r.252                 1986.69       7.50936               
   249 r.253                    1001             2               
   250 r.254                   -1001         -1001               
   251 r.255                 1977.75      0.428267               
   252 r.256                    1001             2               
   253 r.257                   -1001         -1001               
   254 r.258                 1986.69       2.27101               
   255 r.259                    1001             2               
   256 r.260                   -1001         -1001               
   257 r.261                    2000       13.3123               
   258 r.262                    1001             2               
   259 r.263                   -1001         -1001               
   260 r.264                    2000        12.051               

   No. Column name       Activity     Lower bound   Upper bound
------ ------------    ------------- ------------- -------------
     1 tt                    24.5399             0               
     2 s_1_1        *              0             0             1 
     3 t_1_1                 13.3123             0               
     4 s_1_8        *              0             0             1 
     5 s_1_7        *              1             0             1 
     6 s_2_1        *              1             0             1 
     7 t_2_1                 15.6523             0               
     8 s_2_8        *              1             0             1 
     9 s_2_7        *              0             0             1 
    10 s_1_2        *              1             0             1 
    11 t_1_2                 13.3123             0               
    12 s_2_2        *              0             0             1 
    13 t_2_2                 13.3123             0               
    14 s_1_3        *              1             0             1 
    15 t_1_3                 21.5465             0               
    16 s_2_3        *              0             0             1 
    17 t_2_3                 13.3123             0               
    18 s_1_4        *              1             0             1 
    19 t_1_4                  22.247             0               
    20 s_2_4        *              0             0             1 
    21 t_2_4                 13.3123             0               
    22 s_1_5        *              0             0             1 
    23 t_1_5                 11.6619             0               
    24 s_2_5        *              1             0             1 
    25 t_2_5                 11.6619             0               
    26 s_1_6        *              1             0             1 
    27 t_1_6                  23.524             0               
    28 s_2_6        *              0             0             1 
    29 t_2_6                 1024.81             0               
    30 t_1_7                       0             0               
    31 t_2_7                       0             0               
    32 t_1_8                       0             0               
    33 t_2_8                       0             0               
    34 r_1_1_2      *              1             0             1 
    35 u_1_1_2      *              0             0             1 
    36 r_2_1_2      *              1             0             1 
    37 u_2_1_2      *              0             0             1 
    38 r_1_1_3      *              1             0             1 
    39 u_1_1_3      *              0             0             1 
    40 r_2_1_3      *              1             0             1 
    41 u_2_1_3      *              0             0             1 
    42 r_1_1_4      *              1             0             1 
    43 u_1_1_4      *              0             0             1 
    44 r_2_1_4      *              1             0             1 
    45 u_2_1_4      *              0             0             1 
    46 r_1_1_5      *              1             0             1 
    47 u_1_1_5      *              0             0             1 
    48 r_2_1_5      *              0             0             1 
    49 u_2_1_5      *              1             0             1 
    50 r_1_2_3      *              0             0             1 
    51 u_1_2_3      *              0             0             1 
    52 r_2_2_3      *              1             0             1 
    53 u_2_2_3      *              0             0             1 
    54 r_1_2_4      *              0             0             1 
    55 u_1_2_4      *              0             0             1 
    56 r_2_2_4      *              1             0             1 
    57 u_2_2_4      *              0             0             1 
    58 r_1_2_5      *              1             0             1 
    59 u_1_2_5      *              0             0             1 
    60 r_2_2_5      *              1             0             1 
    61 u_2_2_5      *              0             0             1 
    62 r_1_2_8      *              1             0             1 
    63 u_1_2_8      *              0             0             1 
    64 r_2_2_8      *              1             0             1 
    65 u_2_2_8      *              0             0             1 
    66 r_1_3_4      *              0             0             1 
    67 u_1_3_4      *              0             0             1 
    68 r_2_3_4      *              1             0             1 
    69 u_2_3_4      *              0             0             1 
    70 r_1_3_5      *              1             0             1 
    71 u_1_3_5      *              0             0             1 
    72 r_2_3_5      *              1             0             1 
    73 u_2_3_5      *              0             0             1 
    74 r_1_4_5      *              1             0             1 
    75 u_1_4_5      *              0             0             1 
    76 r_2_4_5      *              1             0             1 
    77 u_2_4_5      *              0             0             1 
    78 r_1_4_8      *              1             0             1 
    79 u_1_4_8      *              0             0             1 
    80 r_2_4_8      *              1             0             1 
    81 u_2_4_8      *              0             0             1 
    82 r_1_5_7      *              1             0             1 
    83 u_1_5_7      *              0             0             1 
    84 r_2_5_7      *              1             0             1 
    85 u_2_5_7      *              0             0             1 
    86 r_1_7_8      *              1             0             1 
    87 u_1_7_8      *              0             0             1 
    88 r_2_7_8      *              1             0             1 
    89 u_2_7_8      *              0             0             1 

Integer feasibility conditions:

KKT.PE: max.abs.err = 4.55e-13 on row 22
        max.rel.err = 2.21e-16 on row 22
        High quality

KKT.PB: max.abs.err = 0.00e+00 on row 0
        max.rel.err = 0.00e+00 on row 0
        High quality

End of output
